problems/csplib-prob015/SchursLemma-models/noch/O2/lingeling/model_1_4-7-12-solution000001.eprime-solution
language ESSENCE' 1.0

letting boxes_PartitionOccurrence_FirstIndex be [1, 3, 4, 5, 7, 8, 11; int(1..7)]
letting boxes_PartitionOccurrence_NumParts be 7
letting boxes_PartitionOccurrence_PartSizes be [2, 2, 4, 1, 1, 1, 1; int(1..7)]
letting boxes_PartitionOccurrence_WhichPart be [1, 1, 2, 3, 4, 3, 5, 6, 3, 2, 7, 3; int(1..12)]
