problems/csplib-prob015/SchursLemma-models/noch/O2/lingeling/model_1_4-7-12-solution000001.solution
language Essence 1.3

letting boxes be partition({1, 2}, {3, 10}, {4, 6, 9, 12}, {5}, {7}, {8}, {11})
